c 
c G(n,p) graph
c graph gen seed     : 29329
c number of vertices : 50
c max number of edges: 1225
c edge probability   : 0.200000
c data structure     : sparse
c
c           Graph Stats
c number of vertices  : 50
c nonisolated vertices: 50
c number of edges     : 246
c edge density        : 0.200816
c max degree          : 17
c avg degree          : 9.84
c min degree          : 5
p col 50 246
e 1 47
e 1 40
e 1 32
e 1 16
e 1 12
e 1 9
e 1 2
e 2 48
e 2 46
e 2 35
e 2 29
e 2 23
e 2 18
e 2 17
e 3 43
e 3 36
e 3 29
e 3 28
e 3 24
e 3 20
e 3 7
e 4 49
e 4 46
e 4 43
e 4 42
e 4 36
e 4 13
e 4 11
e 4 8
e 5 45
e 5 43
e 5 41
e 5 40
e 5 35
e 5 33
e 5 13
e 6 38
e 6 36
e 6 30
e 6 28
e 6 24
e 6 21
e 6 20
e 6 16
e 6 10
e 6 9
e 7 49
e 7 48
e 7 46
e 7 42
e 7 38
e 7 37
e 7 29
e 7 25
e 7 12
e 7 11
e 7 8
e 8 46
e 8 38
e 8 37
e 8 29
e 8 17
e 8 13
e 8 11
e 8 10
e 9 49
e 9 42
e 9 39
e 9 38
e 9 36
e 9 34
e 9 17
e 9 16
e 9 11
e 10 49
e 10 34
e 10 33
e 10 14
e 10 12
e 10 11
e 11 45
e 11 44
e 11 42
e 11 39
e 11 38
e 11 35
e 11 33
e 11 27
e 11 23
e 11 22
e 11 15
e 11 12
e 12 48
e 12 42
e 12 37
e 12 33
e 12 30
e 12 28
e 13 47
e 13 45
e 13 37
e 13 33
e 13 28
e 13 25
e 13 24
e 13 17
e 14 45
e 14 40
e 14 39
e 14 29
e 14 28
e 14 23
e 14 22
e 15 48
e 15 43
e 15 37
e 15 31
e 15 30
e 15 25
e 15 21
e 15 20
e 16 50
e 16 42
e 16 37
e 16 22
e 16 19
e 17 48
e 17 45
e 17 40
e 17 38
e 17 37
e 17 34
e 17 28
e 17 27
e 17 25
e 17 21
e 17 20
e 17 18
e 18 47
e 18 40
e 18 39
e 18 34
e 18 33
e 18 31
e 18 27
e 18 26
e 18 21
e 19 49
e 19 44
e 19 39
e 19 38
e 19 37
e 19 31
e 19 29
e 19 27
e 19 26
e 19 25
e 20 48
e 20 42
e 20 33
e 20 32
e 20 26
e 20 22
e 21 48
e 21 41
e 21 37
e 21 34
e 21 32
e 21 31
e 21 30
e 22 48
e 22 46
e 22 36
e 22 31
e 23 50
e 23 49
e 23 29
e 23 27
e 23 25
e 24 32
e 24 31
e 24 29
e 25 48
e 25 44
e 25 42
e 25 40
e 26 49
e 26 48
e 26 45
e 26 42
e 26 36
e 26 32
e 26 30
e 26 29
e 26 28
e 27 43
e 27 30
e 28 49
e 28 45
e 29 48
e 29 42
e 29 34
e 29 32
e 29 30
e 30 46
e 30 41
e 30 39
e 30 38
e 30 33
e 31 49
e 31 47
e 31 45
e 31 42
e 31 33
e 31 32
e 32 49
e 32 46
e 32 33
e 33 41
e 33 38
e 34 50
e 34 46
e 34 42
e 34 35
e 35 48
e 35 45
e 35 43
e 35 36
e 36 38
e 37 47
e 37 42
e 38 40
e 39 41
e 40 42
e 41 45
e 41 44
e 42 45
e 42 44
e 43 49
e 44 50
e 44 45
e 45 50
e 45 47
e 46 47
e 47 49
e 47 48
